p cnf 670
-12 -208
-13 -211
-14 -214
-15 -217
-16 -220
-17 -223
-18 -226
-19 -229
-20 -232
-21 -235
-22 -238
-23 239
-24 240
-25 241
-26 242
-27 -13
-27 -14
13 14 27
-28 -15
-28 -16
15 16 28
-29 -17
-29 -18
17 18 29
-30 -19
-30 -20
19 20 30
-31 -21
-31 -22
21 22 31
-32 -23
-32 -24
23 24 32
-33 -25
-33 -26
25 26 33
-34 27
-34 28
-27 -28 34
-35 29
-35 30
-29 -30 35
-36 31
-36 32
-31 -32 36
-37 34
-37 35
-34 -35 37
-38 33
-38 36
-33 -36 38
-39 37
-39 38
-37 -38 39
-40 -12
-40 13
12 -13 40
-41 12
-41 -13
-12 13 41
-42 -40
-42 -41
40 41 42
-43 12
-43 13
-12 -13 43
-44 -12
-44 -42
12 42 44
-45 12
-45 42
-12 -42 45
-46 -44
-46 -45
44 45 46
-47 12
-47 -42
-12 42 47
-48 -43
-48 -47
43 47 48
-49 -13
-49 14
13 -14 49
-50 13
-50 -14
-13 14 50
-51 -49
-51 -50
49 50 51
-52 13
-52 14
-13 -14 52
-53 48
-53 -51
-48 51 53
-54 -48
-54 51
48 -51 54
-55 -53
-55 -54
53 54 55
-56 -48
-56 -51
48 51 56
-57 -52
-57 -56
52 56 57
-58 -14
-58 15
14 -15 58
-59 14
-59 -15
-14 15 59
-60 -58
-60 -59
58 59 60
-61 14
-61 15
-14 -15 61
-62 57
-62 -60
-57 60 62
-63 -57
-63 60
57 -60 63
-64 -62
-64 -63
62 63 64
-65 -57
-65 -60
57 60 65
-66 -61
-66 -65
61 65 66
-67 -15
-67 16
15 -16 67
-68 15
-68 -16
-15 16 68
-69 -67
-69 -68
67 68 69
-70 15
-70 16
-15 -16 70
-71 66
-71 -69
-66 69 71
-72 -66
-72 69
66 -69 72
-73 -71
-73 -72
71 72 73
-74 -66
-74 -69
66 69 74
-75 -70
-75 -74
70 74 75
-76 -16
-76 17
16 -17 76
-77 16
-77 -17
-16 17 77
-78 -76
-78 -77
76 77 78
-79 16
-79 17
-16 -17 79
-80 75
-80 -78
-75 78 80
-81 -75
-81 78
75 -78 81
-82 -80
-82 -81
80 81 82
-83 -75
-83 -78
75 78 83
-84 -79
-84 -83
79 83 84
-85 -17
-85 18
17 -18 85
-86 17
-86 -18
-17 18 86
-87 -85
-87 -86
85 86 87
-88 17
-88 18
-17 -18 88
-89 84
-89 -87
-84 87 89
-90 -84
-90 87
84 -87 90
-91 -89
-91 -90
89 90 91
-92 -84
-92 -87
84 87 92
-93 -88
-93 -92
88 92 93
-94 -18
-94 19
18 -19 94
-95 18
-95 -19
-18 19 95
-96 -94
-96 -95
94 95 96
-97 18
-97 19
-18 -19 97
-98 93
-98 -96
-93 96 98
-99 -93
-99 96
93 -96 99
-100 -98
-100 -99
98 99 100
-101 -93
-101 -96
93 96 101
-102 -97
-102 -101
97 101 102
-103 -19
-103 20
19 -20 103
-104 19
-104 -20
-19 20 104
-105 -103
-105 -104
103 104 105
-106 19
-106 20
-19 -20 106
-107 102
-107 -105
-102 105 107
-108 -102
-108 105
102 -105 108
-109 -107
-109 -108
107 108 109
-110 -102
-110 -105
102 105 110
-111 -106
-111 -110
106 110 111
-112 -20
-112 21
20 -21 112
-113 20
-113 -21
-20 21 113
-114 -112
-114 -113
112 113 114
-115 20
-115 21
-20 -21 115
-116 111
-116 -114
-111 114 116
-117 -111
-117 114
111 -114 117
-118 -116
-118 -117
116 117 118
-119 -111
-119 -114
111 114 119
-120 -115
-120 -119
115 119 120
-121 -21
-121 22
21 -22 121
-122 21
-122 -22
-21 22 122
-123 -121
-123 -122
121 122 123
-124 21
-124 22
-21 -22 124
-125 120
-125 -123
-120 123 125
-126 -120
-126 123
120 -123 126
-127 -125
-127 -126
125 126 127
-128 -120
-128 -123
120 123 128
-129 -124
-129 -128
124 128 129
-130 -22
-130 23
22 -23 130
-131 22
-131 -23
-22 23 131
-132 -130
-132 -131
130 131 132
-133 22
-133 23
-22 -23 133
-134 129
-134 -132
-129 132 134
-135 -129
-135 132
129 -132 135
-136 -134
-136 -135
134 135 136
-137 -129
-137 -132
129 132 137
-138 -133
-138 -137
133 137 138
-139 -23
-139 24
23 -24 139
-140 23
-140 -24
-23 24 140
-141 -139
-141 -140
139 140 141
-142 23
-142 24
-23 -24 142
-143 138
-143 -141
-138 141 143
-144 -138
-144 141
138 -141 144
-145 -143
-145 -144
143 144 145
-146 -138
-146 -141
138 141 146
-147 -142
-147 -146
142 146 147
-148 -24
-148 25
24 -25 148
-149 24
-149 -25
-24 25 149
-150 -148
-150 -149
148 149 150
-151 24
-151 25
-24 -25 151
-152 147
-152 -150
-147 150 152
-153 -147
-153 150
147 -150 153
-154 -152
-154 -153
152 153 154
-155 -147
-155 -150
147 150 155
-156 -151
-156 -155
151 155 156
-157 -25
-157 26
25 -26 157
-158 25
-158 -26
-25 26 158
-159 -157
-159 -158
157 158 159
-160 25
-160 26
-25 -26 160
-161 156
-161 -159
-156 159 161
-162 -156
-162 159
156 -159 162
-163 -161
-163 -162
161 162 163
-164 -156
-164 -159
156 159 164
-165 -160
-165 -164
160 164 165
-166 12
-166 -46
-12 46 166
-167 -12
-167 14
12 -14 167
-168 -166
-168 -167
166 167 168
-169 12
-169 -55
-12 55 169
-170 -12
-170 15
12 -15 170
-171 -169
-171 -170
169 170 171
-172 12
-172 -64
-12 64 172
-173 -12
-173 16
12 -16 173
-174 -172
-174 -173
172 173 174
-175 12
-175 -73
-12 73 175
-176 -12
-176 17
12 -17 176
-177 -175
-177 -176
175 176 177
-178 12
-178 -82
-12 82 178
-179 -12
-179 18
12 -18 179
-180 -178
-180 -179
178 179 180
-181 12
-181 -91
-12 91 181
-182 -12
-182 19
12 -19 182
-183 -181
-183 -182
181 182 183
-184 12
-184 -100
-12 100 184
-185 -12
-185 20
12 -20 185
-186 -184
-186 -185
184 185 186
-187 12
-187 -109
-12 109 187
-188 -12
-188 21
12 -21 188
-189 -187
-189 -188
187 188 189
-190 12
-190 -118
-12 118 190
-191 -12
-191 22
12 -22 191
-192 -190
-192 -191
190 191 192
-193 12
-193 -127
-12 127 193
-194 -12
-194 23
12 -23 194
-195 -193
-195 -194
193 194 195
-196 12
-196 -136
-12 136 196
-197 -12
-197 24
12 -24 197
-198 -196
-198 -197
196 197 198
-199 12
-199 -145
-12 145 199
-200 -12
-200 25
12 -25 200
-201 -199
-201 -200
199 200 201
-202 12
-202 -154
-12 154 202
-203 -12
-203 26
12 -26 203
-204 -202
-204 -203
202 203 204
-205 12
-205 -163
-12 163 205
-206 1
-206 39
-1 -39 206
-207 -39
-207 40
39 -40 207
-208 -206
-208 -207
206 207 208
-209 2
-209 39
-2 -39 209
-210 -39
-210 -168
39 168 210
-211 -209
-211 -210
209 210 211
-212 3
-212 39
-3 -39 212
-213 -39
-213 -171
39 171 213
-214 -212
-214 -213
212 213 214
-215 4
-215 39
-4 -39 215
-216 -39
-216 -174
39 174 216
-217 -215
-217 -216
215 216 217
-218 5
-218 39
-5 -39 218
-219 -39
-219 -177
39 177 219
-220 -218
-220 -219
218 219 220
-221 6
-221 39
-6 -39 221
-222 -39
-222 -180
39 180 222
-223 -221
-223 -222
221 222 223
-224 7
-224 39
-7 -39 224
-225 -39
-225 -183
39 183 225
-226 -224
-226 -225
224 225 226
-227 8
-227 39
-8 -39 227
-228 -39
-228 -186
39 186 228
-229 -227
-229 -228
227 228 229
-230 9
-230 39
-9 -39 230
-231 -39
-231 -189
39 189 231
-232 -230
-232 -231
230 231 232
-233 10
-233 39
-10 -39 233
-234 -39
-234 -192
39 192 234
-235 -233
-235 -234
233 234 235
-236 11
-236 39
-11 -39 236
-237 -39
-237 -195
39 195 237
-238 -236
-238 -237
236 237 238
-239 -39
-239 -198
39 198 239
-240 -39
-240 -201
39 201 240
-241 -39
-241 -204
39 204 241
-242 -39
-242 205
39 -205 242
-243 -26
-243 165
26 -165 243
-244 12
-244 -243
-12 243 244
244
